f:891819
solution:
7 54 89 59 9 62 177 195 179 128 114 49 101 29 8 45 143 121 0 190 189 159 149 135 171 31 169 60 91 15 22 32 79 187 174 136 160 125 66 38 30 151 13 55 147 67 163 157 52 124 4 106 46 16 34 48 86 166 165 73 161 95 94 53 123 142 35 64 144 164 47 43 63 117 168 130 2 146 44 23 26 138 84 194 51 122 173 21 113 98 192 72 20 131 77 150 36 103 115 107 154 170 50 185 88 199 155 145 71 93 108 5 42 25 193 65 102 6 104 85 118 129 140 133 14 61 198 90 132 148 3 68 1 176 172 141 69 184 119 120 33 40 27 97 188 87 152 24 196 70 178 126 153 10 110 116 137 109 78 12 28 96 11 100 175 191 182 183 158 127 57 83 81 186 80 18 58 99 76 75 180 74 197 181 167 112 111 19 56 82 37 105 162 139 17 156 92 41 134 39 
